p cnf 126 445
3 -1 0
3 -2 0
1 2 -3 0
6 -4 0
6 -5 0
4 5 -6 0
7 -3 0
7 -6 0
3 6 -7 0
-11 9 0
-11 10 0
-9 -10 11 0
11 2 -12 0
-11 -2 -12 0
11 -2 12 0
-11 2 12 0
13 4 0
13 -12 0
-4 12 -13 0
15 -13 0
15 14 0
13 -14 -15 0
16 8 0
16 -15 0
-8 15 -16 0
17 -7 0
17 -16 0
7 16 -17 0
18 -5 0
18 5 0
22 20 0
22 21 0
-20 -21 -22 0
23 -19 0
23 22 0
19 -22 -23 0
18 -23 -24 0
-18 23 -24 0
18 23 24 0
-18 -23 24 0
-25 -15 0
-25 -8 0
15 8 25 0
26 -13 0
26 25 0
13 -25 -26 0
-27 -21 0
-27 -26 0
21 26 27 0
-24 27 -28 0
24 -27 -28 0
-24 -27 28 0
24 27 28 0
-29 -11 0
-29 -10 0
11 10 29 0
23 -29 -30 0
-23 29 -30 0
23 29 30 0
-23 -29 30 0
-31 -30 0
-31 -13 0
30 13 31 0
-32 -26 0
-32 -3 0
26 3 32 0
19 -33 -34 0
-19 33 -34 0
19 33 34 0
-19 -33 34 0
-35 2 0
-35 8 0
-2 -8 35 0
8 35 -36 0
-8 -35 -36 0
8 -35 36 0
-8 35 36 0
34 -36 -37 0
-34 36 -37 0
34 36 37 0
-34 -36 37 0
38 -32 0
38 37 0
32 -37 -38 0
-11 -5 -39 0
11 5 -39 0
-11 5 39 0
11 -5 39 0
40 -39 0
40 -13 0
39 13 -40 0
41 -25 0
41 -40 0
25 40 -41 0
-42 -38 0
-42 -41 0
38 41 42 0
-43 -31 0
-43 42 0
31 -42 43 0
-44 28 0
-44 43 0
-28 -43 44 0
-45 17 0
-45 -44 0
-17 44 45 0
34 -8 -46 0
-34 8 -46 0
34 8 46 0
-34 -8 46 0
-47 -19 0
-47 -46 0
19 46 47 0
22 -6 -48 0
-22 6 -48 0
22 6 48 0
-22 -6 48 0
-49 13 0
-49 48 0
-13 -48 49 0
49 10 -50 0
-49 -10 -50 0
49 -10 50 0
-49 10 50 0
-51 5 0
-51 -21 0
-5 21 51 0
-52 34 0
-52 51 0
-34 -51 52 0
-53 -50 0
-53 52 0
50 -52 53 0
47 -53 -54 0
-47 53 -54 0
47 53 54 0
-47 -53 54 0
45 54 -55 0
-45 -54 -55 0
45 -54 55 0
-45 54 55 0
-56 -29 0
-56 -14 0
29 14 56 0
57 25 -58 0
-57 -25 -58 0
57 -25 58 0
-57 25 58 0
59 58 0
59 -19 0
-58 19 -59 0
56 -59 -60 0
-56 59 -60 0
56 59 60 0
-56 -59 60 0
61 -49 0
61 -3 0
49 3 -61 0
62 -33 0
62 61 0
33 -61 -62 0
-63 -60 0
-63 -62 0
60 62 63 0
-64 26 0
-64 13 0
-26 -13 64 0
-65 63 0
-65 -64 0
-63 64 65 0
-66 -33 0
-66 -8 0
33 8 66 0
-67 -58 0
-67 66 0
58 -66 67 0
22 67 -68 0
-22 -67 -68 0
22 -67 68 0
-22 67 68 0
35 22 -69 0
-35 -22 -69 0
35 -22 69 0
-35 22 69 0
21 -69 -70 0
-21 69 -70 0
21 69 70 0
-21 -69 70 0
-71 68 0
-71 70 0
-68 -70 71 0
-72 65 0
-72 -71 0
-65 71 72 0
73 55 0
73 72 0
-55 -72 -73 0
-22 -14 -74 0
22 14 -74 0
-22 14 74 0
22 -14 74 0
75 -74 0
75 10 0
74 -10 -75 0
-75 -33 -76 0
75 33 -76 0
-75 33 76 0
75 -33 76 0
-77 -29 0
-77 5 0
29 -5 77 0
77 25 -78 0
-77 -25 -78 0
77 -25 78 0
-77 25 78 0
-51 -48 -79 0
51 48 -79 0
-51 48 79 0
51 -48 79 0
-80 -78 0
-80 79 0
78 -79 80 0
35 -61 -81 0
-35 61 -81 0
35 61 81 0
-35 -61 81 0
12 -14 -82 0
-12 14 -82 0
12 14 82 0
-12 -14 82 0
83 81 0
83 82 0
-81 -82 -83 0
80 83 -84 0
-80 -83 -84 0
80 -83 84 0
-80 83 84 0
85 -76 0
85 -84 0
76 84 -85 0
86 73 0
86 -85 0
-73 85 -86 0
87 25 0
87 -5 0
-25 5 -87 0
61 -11 -88 0
-61 11 -88 0
61 11 88 0
-61 -11 88 0
87 88 -89 0
-87 -88 -89 0
87 -88 89 0
-87 88 89 0
-90 -66 0
-90 -5 0
66 5 90 0
-90 33 -91 0
90 -33 -91 0
-90 -33 91 0
90 33 91 0
92 89 0
92 -91 0
-89 91 -92 0
93 -5 0
93 -82 0
5 82 -93 0
94 -92 0
94 -93 0
92 93 -94 0
95 -86 0
95 94 0
86 -94 -95 0
-23 18 -96 0
23 -18 -96 0
-23 -18 96 0
23 18 96 0
97 -90 0
97 -50 0
90 50 -97 0
-96 -97 -98 0
96 97 -98 0
-96 97 98 0
96 -97 98 0
48 -37 -99 0
-48 37 -99 0
48 37 99 0
-48 -37 99 0
18 34 -101 0
-18 -34 -101 0
18 -34 101 0
-18 34 101 0
102 -36 0
102 -101 0
36 101 -102 0
-103 100 0
-103 102 0
-100 -102 103 0
104 -23 0
104 79 0
23 -79 -104 0
105 103 0
105 104 0
-103 -104 -105 0
106 -26 0
106 -82 0
26 82 -106 0
-107 -106 0
-107 58 0
106 -58 107 0
108 -75 0
108 -5 0
75 5 -108 0
-109 -107 0
-109 108 0
107 -108 109 0
110 37 0
110 47 0
-37 -47 -110 0
111 110 0
111 -32 0
-110 32 -111 0
-111 -25 -112 0
111 25 -112 0
-111 25 112 0
111 -25 112 0
-113 2 0
-113 -39 0
-2 39 113 0
112 -113 -114 0
-112 113 -114 0
112 113 114 0
-112 -113 114 0
-115 109 0
-115 -114 0
-109 114 115 0
116 -3 0
116 -35 0
3 35 -116 0
-115 -116 -117 0
115 116 -117 0
-115 116 117 0
115 -116 117 0
118 -105 0
118 -117 0
105 117 -118 0
119 5 0
119 39 0
-5 -39 -119 0
-120 47 0
-120 -119 0
-47 119 120 0
121 -52 0
121 -21 0
52 21 -121 0
122 -120 0
122 -121 0
120 121 -122 0
-123 -118 0
-123 -122 0
118 122 123 0
-124 99 0
-124 123 0
-99 -123 124 0
-125 -98 0
-125 -124 0
98 124 125 0
126 -95 0
126 125 0
95 -125 -126 0
47 -107 81 -57 -87 -62 0
-41 -24 0
65 -121 -66 -117 42 0
114 -54 -99 0
87 68 100 0
18 -80 4 0
94 -65 37 115 109 0
87 49 46 0
121 -85 -98 56 0
75 -9 108 -6 0
-53 103 79 20 84 69 0
-56 43 110 -26 -101 49 0
114 34 124 -16 -24 113 0
93 103 -21 111 0
-24 -20 13 94 62 0
-105 54 107 68 61 80 0
-39 69 17 80 0
-74 -85 -71 120 98 0
-73 118 -102 -39 -103 0
-23 91 110 -5 -96 86 0
28 71 -124 8 -121 0
-17 24 117 126 107 0
-52 -81 55 -75 0
119 25 -12 51 0
41 21 96 68 43 0
-77 41 93 0
107 19 54 -110 -26 0
-14 -89 -62 65 0
-89 -103 -59 -60 0
108 72 -2 58 -11 0
99 118 -105 -125 36 -102 0
73 -102 70 0
29 61 114 48 -117 -4 0
-4 12 -46 0
8 36 -42 99 -94 -26 0
90 78 0
-14 -52 -23 19 58 0
112 -106 14 -114 0
-126 -53 -29 0
89 -42 46 0
29 101 -37 0
46 45 0
125 -44 0
-8 67 0
-57 -116 -77 0
81 -56 115 -33 0
118 119 69 -12 -56 -52 0
103 77 -93 80 53 0
120 106 15 -112 102 -47 0
-113 -108 -35 56 1 0
-33 -114 89 55 -11 0
-65 7 -54 0
110 125 -105 57 0
62 -74 0
64 -92 -105 0
-118 37 -76 -68 35 0
-101 88 35 -4 78 -81 0
60 -87 0
-66 -103 90 0
-59 -20 -83 -16 -34 0
-83 -103 95 -80 0
108 90 48 95 -106 0
38 117 106 -61 -15 -46 0
113 103 91 1 -122 0
-78 84 17 -39 36 16 0
19 21 14 -94 86 31 0
-89 9 0
-100 -4 -126 0
-7 86 119 2 0
18 98 -93 0
-115 87 -26 33 0
78 102 -126 14 0
-87 -104 122 0
-8 -111 -56 -70 0
126 0
